51
raw_data/mm-rcpsp/MMLIB50/J5011_1.mm
Time limit set to 60 seconds
Running CP solver
/home/omastto1/General-Optimization-Solver/src/solvers/mmrcpsp.py:42(stream:276:6): Warning: Cumulative expression 'pulse': height is zero, expression is zero everywhere.
                                                                                               VarCumulAtom_419 = pulse(task_0_mode_0, 0)
/home/omastto1/General-Optimization-Solver/src/solvers/mmrcpsp.py:42(stream:276:3909): Warning: Cumulative expression 'pulse': height is zero, expression is zero everywhere.
                                                                                                  VarCumulAtom_570 = pulse(task_51_mode_0, 0)
/home/omastto1/General-Optimization-Solver/src/solvers/mmrcpsp.py:42(stream:277:6): Warning: Cumulative expression 'pulse': height is zero, expression is zero everywhere.
                                                                                               VarCumulAtom_574 = pulse(task_0_mode_0, 0)
/home/omastto1/General-Optimization-Solver/src/solvers/mmrcpsp.py:42(stream:277:3906): Warning: Cumulative expression 'pulse': height is zero, expression is zero everywhere.
                                                                                                  VarCumulAtom_725 = pulse(task_51_mode_0, 0)
 ! --------------------------------------------------- CP Optimizer 20.1.0.0 --
 ! Minimization problem - 205 variables, 310 constraints
 ! TimeLimit            = 60
 ! Workers              = 14
 ! LogVerbosity         = Terse
 ! Initial process time : 0.00s (0.00s extraction + 0.00s propagation)
 !  . Log search space  : 523.4 (before), 523.4 (after)
 !  . Memory usage      : 1.3 MB (before), 1.3 MB (after)
 ! Using parallel search with 14 workers.
 ! ----------------------------------------------------------------------------
 !          Best Branches  Non-fixed    W       Branch decision
                        0        205                 -
 + New bound is 19
 ! Using iterative diving.
 ! Using temporal relaxation.
 *            59      113  0.88s        1      (gap is 67.80%)
 *            57      320  0.88s        1      (gap is 66.67%)
 *            36      522  0.88s        1      (gap is 47.22%)
 *            33     1111  0.88s        1      (gap is 42.42%)
 *            32     1287  0.88s        1      (gap is 40.62%)
 *            31     1568  0.88s        1      (gap is 38.71%)
 *            30     1581  0.88s        3      (gap is 36.67%)
 *            29     2158  0.88s       11      (gap is 34.48%)
 *            28     9152  2.56s        9      (gap is 32.14%)
 ! Using failure-directed search.
 *            27    20910  5.75s        6      (gap is 29.63%)
 ! ----------------------------------------------------------------------------
 ! Search terminated by limit, 10 solutions found.
 ! Best objective         : 27 (gap is 29.63%)
 ! Best bound             : 19
 ! ----------------------------------------------------------------------------
 ! Number of branches     : 5372227
 ! Number of fails        : 1199102
 ! Total memory usage     : 19.8 MB (19.6 MB CP Optimizer + 0.2 MB Concert)
 ! Time spent in solve    : 60.00s (60.00s engine + 0.00s extraction)
 ! Search speed (br. / s) : 89537.1
 ! ----------------------------------------------------------------------------
task_0: (start=0, end=0, size=0, length=0)
Task 0 is scheduled in mode 0 from 0 to 0
task_1: (start=5, end=8, size=3, length=3)
Task 1 is scheduled in mode 0 from 5 to 8
task_2: (start=1, end=6, size=5, length=5)
Task 2 is scheduled in mode 0 from 1 to 6
task_3: (start=0, end=5, size=5, length=5)
Task 3 is scheduled in mode 0 from 0 to 5
task_4: (start=0, end=1, size=1, length=1)
Task 4 is scheduled in mode 0 from 0 to 1
task_5: (start=6, end=7, size=1, length=1)
Task 5 is scheduled in mode 0 from 6 to 7
task_6: (start=0, end=1, size=1, length=1)
Task 6 is scheduled in mode 0 from 0 to 1
task_7: (start=1, end=3, size=2, length=2)
Task 7 is scheduled in mode 0 from 1 to 3
task_8: (start=14, end=16, size=2, length=2)
Task 8 is scheduled in mode 0 from 14 to 16
task_9: (start=5, end=15, size=10, length=10)
Task 9 is scheduled in mode 2 from 5 to 15
task_10: (start=6, end=8, size=2, length=2)
Task 10 is scheduled in mode 0 from 6 to 8
task_11: (start=1, end=5, size=4, length=4)
Task 11 is scheduled in mode 0 from 1 to 5
task_12: (start=14, end=15, size=1, length=1)
Task 12 is scheduled in mode 0 from 14 to 15
task_13: (start=3, end=7, size=4, length=4)
Task 13 is scheduled in mode 0 from 3 to 7
task_14: (start=12, end=13, size=1, length=1)
Task 14 is scheduled in mode 0 from 12 to 13
task_15: (start=8, end=12, size=4, length=4)
Task 15 is scheduled in mode 0 from 8 to 12
task_16: (start=16, end=17, size=1, length=1)
Task 16 is scheduled in mode 0 from 16 to 17
task_17: (start=0, end=1, size=1, length=1)
Task 17 is scheduled in mode 0 from 0 to 1
task_18: (start=7, end=8, size=1, length=1)
Task 18 is scheduled in mode 0 from 7 to 8
task_19: (start=11, end=14, size=3, length=3)
Task 19 is scheduled in mode 0 from 11 to 14
task_20: (start=7, end=11, size=4, length=4)
Task 20 is scheduled in mode 1 from 7 to 11
task_21: (start=1, end=6, size=5, length=5)
Task 21 is scheduled in mode 1 from 1 to 6
task_22: (start=8, end=12, size=4, length=4)
Task 22 is scheduled in mode 0 from 8 to 12
task_23: (start=12, end=15, size=3, length=3)
Task 23 is scheduled in mode 0 from 12 to 15
task_24: (start=12, end=14, size=2, length=2)
Task 24 is scheduled in mode 0 from 12 to 14
task_25: (start=13, end=14, size=1, length=1)
Task 25 is scheduled in mode 0 from 13 to 14
task_26: (start=8, end=12, size=4, length=4)
Task 26 is scheduled in mode 0 from 8 to 12
task_27: (start=12, end=13, size=1, length=1)
Task 27 is scheduled in mode 0 from 12 to 13
task_28: (start=19, end=20, size=1, length=1)
Task 28 is scheduled in mode 0 from 19 to 20
task_29: (start=15, end=20, size=5, length=5)
Task 29 is scheduled in mode 0 from 15 to 20
task_30: (start=20, end=22, size=2, length=2)
Task 30 is scheduled in mode 0 from 20 to 22
task_31: (start=16, end=19, size=3, length=3)
Task 31 is scheduled in mode 0 from 16 to 19
task_32: (start=21, end=23, size=2, length=2)
Task 32 is scheduled in mode 0 from 21 to 23
task_33: (start=20, end=23, size=3, length=3)
Task 33 is scheduled in mode 0 from 20 to 23
task_34: (start=19, end=22, size=3, length=3)
Task 34 is scheduled in mode 0 from 19 to 22
task_35: (start=23, end=25, size=2, length=2)
Task 35 is scheduled in mode 0 from 23 to 25
task_36: (start=26, end=27, size=1, length=1)
Task 36 is scheduled in mode 0 from 26 to 27
task_37: (start=22, end=24, size=2, length=2)
Task 37 is scheduled in mode 0 from 22 to 24
task_38: (start=14, end=19, size=5, length=5)
Task 38 is scheduled in mode 0 from 14 to 19
task_39: (start=19, end=21, size=2, length=2)
Task 39 is scheduled in mode 0 from 19 to 21
task_40: (start=14, end=19, size=5, length=5)
Task 40 is scheduled in mode 1 from 14 to 19
task_41: (start=24, end=26, size=2, length=2)
Task 41 is scheduled in mode 0 from 24 to 26
task_42: (start=25, end=26, size=1, length=1)
Task 42 is scheduled in mode 0 from 25 to 26
task_43: (start=26, end=27, size=1, length=1)
Task 43 is scheduled in mode 0 from 26 to 27
task_44: (start=26, end=27, size=1, length=1)
Task 44 is scheduled in mode 0 from 26 to 27
task_45: (start=23, end=25, size=2, length=2)
Task 45 is scheduled in mode 0 from 23 to 25
task_46: (start=17, end=20, size=3, length=3)
Task 46 is scheduled in mode 0 from 17 to 20
task_47: (start=25, end=27, size=2, length=2)
Task 47 is scheduled in mode 0 from 25 to 27
task_48: (start=24, end=26, size=2, length=2)
Task 48 is scheduled in mode 0 from 24 to 26
task_49: (start=15, end=16, size=1, length=1)
Task 49 is scheduled in mode 0 from 15 to 16
task_50: (start=22, end=24, size=2, length=2)
Task 50 is scheduled in mode 1 from 22 to 24
task_51: (start=27, end=27, size=0, length=0)
Task 51 is scheduled in mode 0 from 27 to 27
Feasible solution found
Objective value: 27
Solution is 42.1 % worse than the lower bound.
